c   #vars: 38   #clauses: 159   #literals: 444
c 
p cnf 38 159
-1 -2 0
-3 -4 0
-5 -6 0
-8 -9 0
-10 -11 0
3 4 -5 22 0
3 4 23 24 0
-12 -13 0
-14 -15 0
23 24 37 38 0
20 21 -35 -36 0
-16 -17 0
-18 -19 0
-20 -21 0
-25 -26 -27 -38 0
1 2 25 26 0
-23 -24 0
-25 -26 0
-27 -28 0
-29 -30 0
-31 -32 0
7 -8 -9 -36 0
14 15 33 34 0
-33 -34 0
10 11 16 17 0
16 17 33 34 0
25 26 33 34 0
-35 -36 0
3 4 31 32 0
-37 -38 0
5 6 -10 22 0
12 13 25 26 0
-1 -14 0
-2 -15 0
8 9 20 21 0
-1 -23 0
-2 -24 0
8 9 18 19 0
-1 -25 0
-2 -26 0
18 19 31 32 0
-1 -29 0
-2 -30 0
-1 -31 0
-2 -32 0
-3 5 6 22 0
7 18 19 -36 0
-25 -26 -27 -28 0
-4 -22 0
5 6 31 32 0
-3 -23 0
-4 -24 0
5 6 29 30 0
-3 -25 0
-4 -26 0
-3 -31 0
-4 -32 0
-1 -2 16 17 0
-5 -14 0
-6 -15 0
-25 -26 -28 -37 0
-6 -22 0
-5 -27 0
-6 -28 0
12 13 23 24 0
-5 -29 0
-6 -30 0
-5 -31 0
-6 -32 0
7 -17 35 36 0
-7 -16 0
10 11 29 30 0
-7 -18 0
3 4 -10 22 0
-5 10 11 22 0
-7 -35 0
-8 -16 0
-9 -17 0
-8 -18 0
-9 -19 0
1 2 31 32 0
-8 -20 0
-9 -21 0
8 9 16 17 0
-8 -27 0
-9 -28 0
5 6 14 15 0
-3 10 11 22 0
-8 -35 0
-9 -36 0
7 -8 -9 -17 0
5 6 27 28 0
-10 -16 0
-11 -17 0
7 -8 -9 -19 0
-10 -20 0
-11 -21 0
8 9 35 36 0
-25 -26 -37 -38 0
-11 -22 0
-10 -29 0
-11 -30 0
23 24 27 28 0
8 9 27 28 0
25 26 35 36 0
-12 -23 0
-13 -24 0
3 4 -16 -17 0
-12 -25 0
-13 -26 0
7 16 17 -36 0
-12 -33 0
-13 -34 0
-20 -21 35 36 0
-12 -37 0
-13 -38 0
-14 -33 0
-15 -34 0
-14 -35 0
-15 -36 0
10 11 20 21 0
7 -19 35 36 0
18 19 37 38 0
-16 -33 0
-17 -34 0
7 16 17 -19 0
1 2 -16 -17 0
7 -17 18 19 0
-18 -31 0
-19 -32 0
14 15 35 36 0
-18 -37 0
-19 -38 0
1 2 29 30 0
-20 -27 0
-21 -28 0
1 2 14 15 0
-20 -35 0
-21 -36 0
3 4 25 26 0
-23 -27 0
-24 -28 0
20 21 35 36 0
-23 -29 0
-24 -30 0
-23 -37 0
-24 -38 0
23 24 29 30 0
1 2 23 24 0
12 13 33 34 0
27 28 -37 -38 0
-3 -4 16 17 0
20 21 27 28 0
-27 -28 37 38 0
12 13 37 38 0
-25 -33 0
-26 -34 0
-25 -35 0
-26 -36 0
